50 8
351 334
247 478
221 922
751 360
333 570
34 280
341 377
582 273
293 848
413 808
757 203
317 184
324 446
534 96
115 287
364 808
315 564
525 268
171 554
405 267
85 106
102 210
557 307
840 678
316 432
662 607
933 638
355 101
173 890
362 341
207 898
315 295
228 266
842 738
756 292
277 82
355 471
544 253
100 177
730 480
290 714
779 601
713 98
263 382
256 109
363 677
741 635
903 183
417 621
322 307
